
<<< setup

Version identifier: 22.1.0.0 | 2022-03-09 | 1a383f8ce
Tried aggregator 1 time.
LP Presolve eliminated 44 rows and 30 columns.
All rows and columns eliminated.
Presolve time = 0.00 sec. (0.01 ticks)
main returns 0

<<< main


<<< done

